
%FILE DATA:	Soccer Computational Problem for MiniZinc Models	%
%AUTHOR:	Jack Wall	%
%CONTACT:  	116397063@umail.ucc.ie			%
%LAST UPDATE:	03/12/2020, 11:03:47						%
%DESCRIPTION: 	168 games played with 14 games left				%


n=14; %number of teams

%Games to play
games=[|4,10|9,7|3,4|2,7|13,1|5,12|3,7|9,10|1,5|14,5|4,7|9,14|11,7|6,13|];

%Initial points
iPoints=[30,37,29,33,39,31,23,43,29,27,34,43,28,32];

%POSITION CONSTRAINTS
% [|teamID, operator, position|...]
% operators index:
%  1 for =  operator
%  2 for >  operator
%  3 for >= operator
%  4 for <  operator
%  5 for <= operator
positionConstraints=[|12,5,1|8,4,3|5,1,3|2,1,4|];